% ----DATA VARIABLES----

t=12;%number of attributes
k=8;%max length of the support set
n=17;%number of positive instances
m=17;%number of negative instances
c=3;%number of atMostOne Constraints

% ----OMEGAS----

omegap= [| 1, 1, 1, 0, 0, 0, 1, 0, 1, 0, 1, 0|
 1, 1, 1, 1, 0, 0, 0, 0, 1, 1, 1, 1|
 1, 0, 0, 0, 1, 1, 0, 1, 0, 0, 0, 0|
 0, 0, 0, 0, 1, 1, 1, 1, 1, 1, 1, 0|
 0, 1, 1, 0, 0, 0, 0, 1, 0, 0, 1, 0|
 0, 1, 1, 0, 0, 1, 1, 1, 0, 1, 0, 0|
 1, 0, 0, 0, 0, 0, 0, 1, 0, 0, 1, 0|
 1, 0, 1, 1, 1, 1, 0, 1, 0, 0, 1, 1|
 1, 0, 0, 1, 0, 0, 0, 1, 0, 0, 0, 1|
 0, 1, 0, 1, 1, 0, 0, 0, 0, 0, 0, 0|
 0, 0, 0, 1, 1, 1, 0, 0, 1, 1, 1, 1|
 0, 0, 1, 0, 1, 1, 1, 0, 0, 0, 1, 0|
 1, 0, 0, 1, 0, 0, 0, 0, 0, 1, 0, 0|
 1, 1, 1, 0, 0, 1, 1, 0, 1, 0, 1, 0|
 0, 0, 0, 0, 1, 0, 0, 1, 0, 1, 0, 1|
 0, 1, 1, 0, 1, 0, 1, 1, 0, 0, 1, 0|
 0, 0, 1, 0, 0, 0, 1, 0, 1, 1, 0, 1|];

omegan= [| 0, 1, 1, 1, 1, 0, 0, 0, 1, 1, 0, 0|
 0, 1, 0, 1, 1, 0, 1, 0, 0, 1, 1, 1|
 0, 1, 0, 1, 0, 0, 1, 0, 0, 1, 1, 1|
 0, 0, 1, 0, 0, 0, 0, 1, 0, 0, 0, 1|
 1, 1, 0, 1, 1, 0, 0, 0, 0, 0, 1, 0|
 0, 0, 1, 1, 1, 1, 0, 1, 1, 0, 0, 0|
 1, 1, 1, 0, 0, 1, 1, 1, 1, 0, 0, 0|
 0, 1, 1, 0, 0, 0, 0, 1, 1, 0, 1, 0|
 1, 0, 1, 0, 0, 1, 0, 0, 1, 1, 0, 1|
 1, 0, 0, 0, 0, 1, 0, 1, 0, 1, 0, 0|
 1, 1, 0, 0, 0, 1, 1, 0, 0, 0, 0, 0|
 0, 1, 0, 1, 0, 1, 0, 1, 0, 0, 1, 0|
 0, 1, 0, 1, 0, 0, 1, 0, 0, 0, 0, 0|
 1, 1, 1, 1, 0, 1, 1, 0, 1, 1, 0, 1|
 1, 0, 0, 0, 1, 0, 1, 0, 0, 0, 1, 0|
 0, 1, 1, 0, 0, 0, 0, 1, 1, 0, 1, 0|
 0, 1, 0, 0, 0, 0, 0, 1, 1, 0, 0, 1|];

% ----CONSTRAINS----

atMostOne=[{11, 6}, {8, 11, 4, 6, 6}, {3, 9}];